0 5 6 7 8 9 7 5 4 3 3 5 
5 0 5 6 7 8 9 7 5 4 3 2
6 5 0 8 5 4 3 2 1 3 5 6
7 6 8 0 7 6 5 4 3 5 7 8
8 7 5 7 0 5 7 3 8 9 6 4
9 8 4 6 5 0 1 2 5 4 6 7
7 9 3 5 7 1 0 6 7 8 2 1
5 7 2 4 3 2 6 0 5 3 7 3
4 5 1 3 8 5 7 5 0 4 6 9
3 4 3 5 9 4 8 3 4 0 8 2
3 3 5 7 6 6 2 7 6 8 0 1
5 2 6 8 4 7 1 3 9 2 1 0
